# Solution for model GasLib-40
# Objective value = 7.3877663464932922e+01
loadshed[innode_1] 0
loadshed[innode_2] 0
loadshed[innode_3] 0
loadshed[innode_4] 0
loadshed[innode_5] 0
loadshed[innode_6] 0
loadshed[innode_7] 0
loadshed[innode_8] 0
loadshed[source_1] -3.4369282530997136e-02
loadshed[source_2] 1.1969056077430018e-01
loadshed[source_3] 3.8199185766487853e-01
loadshed[sink_1] 8.7250075361114421e-01
loadshed[sink_2] 0
loadshed[sink_3] 0
loadshed[sink_4] 0
loadshed[sink_5] 0
loadshed[sink_6] 0
loadshed[sink_7] 0
loadshed[sink_8] 0
loadshed[sink_9] 7.2414041871762869e-01
loadshed[sink_10] 0
loadshed[sink_11] 0
loadshed[sink_12] 1
loadshed[sink_13] 0
loadshed[sink_14] 0
loadshed[sink_15] 0
loadshed[sink_16] 0
loadshed[sink_17] 0
loadshed[sink_18] 0
loadshed[sink_19] 0
loadshed[sink_20] 0
loadshed[sink_21] 1
loadshed[sink_22] 0
loadshed[sink_23] 0
loadshed[sink_24] 9.2071914145056477e-01
loadshed[sink_25] 0
loadshed[sink_26] 0
loadshed[sink_27] 0
loadshed[sink_28] 0
loadshed[sink_29] 0
flow[source_1,sink_3] 1.6352372720012602e+02
flow[innode_1,sink_16] 1.6354166666666970e+01
flow[innode_6,sink_13] 1.6778087775979181e+01
flow[sink_13,sink_14] 4.2392110931251281e-01
flow[sink_14,sink_10] -1.5930245557354283e+01
flow[sink_25,sink_26] 1.7143483653506703e+02
flow[sink_26,sink_9] 0
flow[sink_9,sink_18] -4.5114535688887809e+00
flow[sink_26,sink_4] 1.5508066986840038e+02
flow[sink_4,sink_20] 3.5047941964543242e+01
flow[sink_18,sink_6] -2.0865620235555447e+01
flow[sink_25,innode_8] -1.3081539386678963e+02
flow[sink_6,sink_7] -5.5659097494206492e+01
flow[sink_6,sink_22] 1.8439310591984416e+01
flow[sink_7,sink_24] 1.2965723741938913e+00
flow[sink_22,sink_1] 2.0851439253177468e+00
flow[sink_24,sink_21] 0
flow[sink_21,sink_12] 0
flow[sink_7,sink_5] -7.3309836535067049e+01
flow[sink_5,sink_17] -8.9664003201733721e+01
flow[sink_17,sink_4] -1.0367856123719048e+02
flow[sink_17,sink_8] -2.3396086312099129e+00
flow[sink_3,sink_23] 16.3541666666697
flow[sink_8,sink_20] -1.8693775297876641e+01
flow[sink_25,sink_20] 0
flow[sink_25,sink_15] -7.3751697110922763e+01
flow[sink_15,sink_29] -5.1663216451549246e+01
flow[sink_29,sink_28] 1.6354166666667879e+01
flow[sink_29,sink_2] 5.4796813992706859e+01
flow[sink_2,sink_15] 3.8442647326040188e+01
flow[sink_29,innode_7] -1.3916836377759066e+02
flow[innode_4,sink_19] 3.6980843702307951e+01
flow[sink_19,innode_3] 0
flow[innode_4,innode_5] 6.0720235188379831e+01
flow[sink_27,innode_5] -6.0720235188379831e+01
flow[sink_27,sink_19] 4.4366068521713160e+01
flow[sink_10,sink_11] 3.2708333333333641e+01
flow[sink_10,innode_2] -6.4992745557354610e+01
flow[sink_10,innode_3] 0
flow[innode_6,sink_25] -1.6778087775979181e+01
flow[sink_11,innode_1] 1.6354166666666970e+01
flow[sink_19,innode_2] 6.4992745557354610e+01
flow[source_3,innode_4] 9.7701078890687782e+01
flow[source_2,innode_7] 1.3916836377759066e+02
flow[sink_3,innode_8] 1.3081539386678963e+02
pressure[innode_1] 7.5928225454752436e+01
pressure[innode_2] 79.5150617938927
pressure[innode_3] 79.5150617938927
pressure[innode_4] 81.01325
pressure[innode_5] 8.0971483420449516e+01
pressure[innode_6] 7.5419701952848939e+01
pressure[innode_7] 81.01325
pressure[innode_8] 80.466652648298
pressure[source_1] 81.01325
pressure[source_2] 81.01325
pressure[source_3] 81.01325
pressure[sink_1] 1.0132500000000002e+00
pressure[sink_2] 7.5902976319997435e+01
pressure[sink_3] 80.466652648298
pressure[sink_4] 4.3628289360020744e+01
pressure[sink_5] 3.2986716490524479e+01
pressure[sink_6] 1.7336620219716097e+00
pressure[sink_7] 2.4977287593586
pressure[sink_8] 3.9754316130832656e+01
pressure[sink_9] 1.01325
pressure[sink_10] 7.6079926762355981e+01
pressure[sink_11] 7.5928225454752436e+01
pressure[sink_12] 1.01325
pressure[sink_13] 7.5327207158818908e+01
pressure[sink_14] 75.3264485158837
pressure[sink_15] 7.5777469549100914e+01
pressure[sink_16] 7.4906575619934756e+01
pressure[sink_17] 3.9666036619023345e+01
pressure[sink_18] 1.1764878365665608e+00
pressure[sink_19] 79.5150617938927
pressure[sink_20] 4.1057009373465853e+01
pressure[sink_21] 1.01325
pressure[sink_22] 1.1488797639819810e+00
pressure[sink_23] 8.0301934636638208e+01
pressure[sink_24] 1.01325
pressure[sink_25] 7.5419701952848939e+01
pressure[sink_26] 6.3345647093780485e+01
pressure[sink_27] 80.4676176673165
pressure[sink_28] 7.6995759186771011e+01
pressure[sink_29] 7.7291041460388186e+01
interdiction[source_1,sink_3] 0
interdiction[innode_1,sink_16] 0
interdiction[innode_6,sink_13] 0
interdiction[sink_13,sink_14] 0
interdiction[sink_14,sink_10] 0
interdiction[sink_25,sink_26] 0
interdiction[sink_26,sink_9] 1
interdiction[sink_9,sink_18] 0
interdiction[sink_26,sink_4] 0
interdiction[sink_4,sink_20] 0
interdiction[sink_18,sink_6] 0
interdiction[sink_25,innode_8] 0
interdiction[sink_6,sink_7] 0
interdiction[sink_6,sink_22] 0
interdiction[sink_7,sink_24] 0
interdiction[sink_22,sink_1] 0
interdiction[sink_24,sink_21] 0
interdiction[sink_21,sink_12] 0
interdiction[sink_7,sink_5] 0
interdiction[sink_5,sink_17] 0
interdiction[sink_17,sink_4] 0
interdiction[sink_17,sink_8] 0
interdiction[sink_3,sink_23] 0
interdiction[sink_8,sink_20] 0
interdiction[sink_25,sink_20] 1
interdiction[sink_25,sink_15] 0
interdiction[sink_15,sink_29] 0
interdiction[sink_29,sink_28] 0
interdiction[sink_29,sink_2] 0
interdiction[sink_2,sink_15] 0
interdiction[sink_29,innode_7] 0
interdiction[innode_4,sink_19] 0
interdiction[sink_19,innode_3] 0
interdiction[innode_4,innode_5] 0
interdiction[sink_27,innode_5] 0
interdiction[sink_27,sink_19] 0
interdiction[sink_10,sink_11] 0
interdiction[sink_10,innode_2] 0
interdiction[sink_10,innode_3] 1
interdiction[innode_6,sink_25] 0
interdiction[sink_11,innode_1] 0
interdiction[sink_19,innode_2] 0
interdiction[source_3,innode_4] 0
interdiction[source_2,innode_7] 0
interdiction[sink_3,innode_8] 0
WCcheckFlow[source_1,sink_3] 39
WCcheckFlow[innode_1,sink_16] 1
WCcheckFlow[innode_6,sink_13] 13
WCcheckFlow[sink_13,sink_14] 12
WCcheckFlow[sink_14,sink_10] 11
WCcheckFlow[sink_25,sink_26] 15
WCcheckFlow[sink_26,sink_9] 0
WCcheckFlow[sink_9,sink_18] -1
WCcheckFlow[sink_26,sink_4] 14
WCcheckFlow[sink_4,sink_20] 1
WCcheckFlow[sink_18,sink_6] -2
WCcheckFlow[sink_25,innode_8] -36
WCcheckFlow[sink_6,sink_7] -5
WCcheckFlow[sink_6,sink_22] 2
WCcheckFlow[sink_7,sink_24] 3
WCcheckFlow[sink_22,sink_1] 1
WCcheckFlow[sink_24,sink_21] 2
WCcheckFlow[sink_21,sink_12] 1
WCcheckFlow[sink_7,sink_5] -9
WCcheckFlow[sink_5,sink_17] -10
WCcheckFlow[sink_17,sink_4] -12
WCcheckFlow[sink_17,sink_8] 1
WCcheckFlow[sink_3,sink_23] 1
WCcheckFlow[sink_8,sink_20] 0
WCcheckFlow[sink_25,sink_20] 0
WCcheckFlow[sink_25,sink_15] 6
WCcheckFlow[sink_15,sink_29] 5
WCcheckFlow[sink_29,sink_28] 1
WCcheckFlow[sink_29,sink_2] 1
WCcheckFlow[sink_2,sink_15] 0
WCcheckFlow[sink_29,innode_7] 2
WCcheckFlow[innode_4,sink_19] -4
WCcheckFlow[sink_19,innode_3] 1
WCcheckFlow[innode_4,innode_5] 2
WCcheckFlow[sink_27,innode_5] -1
WCcheckFlow[sink_27,sink_19] 0
WCcheckFlow[sink_10,sink_11] 3
WCcheckFlow[sink_10,innode_2] 7
WCcheckFlow[sink_10,innode_3] 0
WCcheckFlow[innode_6,sink_25] -14
WCcheckFlow[sink_11,innode_1] 2
WCcheckFlow[sink_19,innode_2] -6
WCcheckFlow[source_3,innode_4] -1
WCcheckFlow[source_2,innode_7] -1
WCcheckFlow[sink_3,innode_8] 37
